n_agents = 30;
start = [36,32,43,35,10,42,14,34,45,9,37,19,27,31,28,49,7,51,3,6,46,2,11,44,26,18,41,38,50,48];
goal = [45,13,31,22,24,33,3,34,26,17,6,18,28,36,16,42,10,52,20,25,39,1,35,37,38,19,47,50,51,44];